182
Route #1: 1 35 75 134 
Route #2: 2 40 76 
Route #3: 3 54 97 
Route #4: 4 53 
Route #5: 5 46 82 
Route #6: 6 37 56 125 
Route #7: 7 28 72 139 
Route #8: 8 33 109 
Route #9: 9 14 38 71 101 
Route #10: 10 103 
Route #11: 11 58 
Route #12: 12 47 114 
Route #13: 13 80 
Route #14: 15 112 
Route #15: 16 55 131 
Route #16: 17 43 88 
Route #17: 18 100 
Route #18: 19 85 
Route #19: 20 60 119 
Route #20: 21 65 136 
Route #21: 22 106 
Route #22: 23 63 94 156 
Route #23: 24 111 
Route #24: 25 42 102 137 
Route #25: 26 107 148 
Route #26: 27 51 128 
Route #27: 29 79 163 
Route #28: 30 59 73 124 
Route #29: 31 99 145 
Route #30: 32 78 141 
Route #31: 34 90 
Route #32: 36 93 121 
Route #33: 39 89 
Route #34: 41 67 135 
Route #35: 44 81 123 
Route #36: 45 127 188 
Route #37: 48 113 
Route #38: 49 182 
Route #39: 50 83 132 180 
Route #40: 52 153 
Route #41: 57 146 
Route #42: 61 117 142 155 
Route #43: 62 147 
Route #44: 64 129 
Route #45: 66 159 
Route #46: 68 138 211 
Route #47: 69 115 164 
Route #48: 70 126 191 226 
Route #49: 74 151 228 
Route #50: 77 130 168 
Route #51: 84 179 
Route #52: 86 110 173 220 
Route #53: 87 177 240 257 
Route #54: 91 190 
Route #55: 92 171 244 
Route #56: 95 166 255 
Route #57: 96 165 239 
Route #58: 98 140 196 248 
Route #59: 104 187 247 270 
Route #60: 105 122 152 217 251 
Route #61: 108 150 209 242 
Route #62: 116 176 
Route #63: 118 214 
Route #64: 120 208 
Route #65: 133 185 227 278 
Route #66: 143 232 271 
Route #67: 144 235 
Route #68: 149 252 285 
Route #69: 154 241 304 
Route #70: 157 234 312 
Route #71: 158 249 301 
Route #72: 160 183 254 
Route #73: 161 212 243 318 
Route #74: 162 231 321 
Route #75: 167 229 238 313 
Route #76: 169 222 276 328 
Route #77: 170 237 280 286 
Route #78: 172 215 261 300 
Route #79: 174 272 
Route #80: 175 258 
Route #81: 178 207 221 269 293 322 
Route #82: 181 277 
Route #83: 184 260 284 
Route #84: 186 236 319 
Route #85: 189 225 302 
Route #86: 192 308 
Route #87: 193 289 
Route #88: 194 274 298 
Route #89: 195 259 311 
Route #90: 197 250 294 365 
Route #91: 198 266 
Route #92: 199 297 
Route #93: 200 230 309 
Route #94: 201 264 305 352 
Route #95: 202 291 
Route #96: 203 265 337 
Route #97: 204 283 
Route #98: 205 279 327 
Route #99: 206 292 
Route #100: 210 233 282 
Route #101: 213 290 
Route #102: 216 310 
Route #103: 218 273 349 
Route #104: 219 268 299 366 
Route #105: 223 307 
Route #106: 224 306 
Route #107: 245 303 388 
Route #108: 246 320 
Route #109: 253 281 387 
Route #110: 256 317 398 
Route #111: 262 316 380 
Route #112: 263 353 405 
Route #113: 267 344 415 
Route #114: 275 330 392 
Route #115: 287 323 409 
Route #116: 288 403 
Route #117: 295 332 451 
Route #118: 296 368 439 
Route #119: 314 427 
Route #120: 315 383 438 
Route #121: 324 419 470 
Route #122: 325 423 
Route #123: 326 420 
Route #124: 329 433 
Route #125: 331 381 445 
Route #126: 333 371 436 
Route #127: 334 435 486 
Route #128: 335 441 
Route #129: 336 410 488 
Route #130: 338 391 425 499 
Route #131: 339 437 
Route #132: 340 401 480 
Route #133: 341 421 478 
Route #134: 342 408 494 
Route #135: 343 430 
Route #136: 345 416 461 
Route #137: 346 455 
Route #138: 347 426 485 
Route #139: 348 386 443 460 
Route #140: 350 355 422 479 
Route #141: 351 449 
Route #142: 354 417 484 
Route #143: 356 434 
Route #144: 357 450 
Route #145: 358 495 
Route #146: 359 429 493 
Route #147: 360 414 447 
Route #148: 361 428 475 
Route #149: 362 444 
Route #150: 363 466 
Route #151: 364 406 473 
Route #152: 367 382 457 497 
Route #153: 369 442 491 
Route #154: 370 431 469 
Route #155: 372 463 
Route #156: 373 432 
Route #157: 374 446 
Route #158: 375 456 
Route #159: 376 465 
Route #160: 377 384 471 
Route #161: 378 453 492 
Route #162: 379 448 
Route #163: 385 477 
Route #164: 389 467 
Route #165: 390 464 
Route #166: 393 481 
Route #167: 394 454 
Route #168: 395 474 
Route #169: 396 487 
Route #170: 397 490 
Route #171: 399 452 
Route #172: 400 468 498 
Route #173: 402 472 
Route #174: 404 482 
Route #175: 407 489 
Route #176: 411 458 
Route #177: 412 483 
Route #178: 413 476 
Route #179: 418 496 
Route #180: 424 500 
Route #181: 440 462 
Route #182: 459 
Cost 182.0
